c Reduced graph for p31 generated by Cyril Grelier
p edge 47 179
e 1 3
e 1 4
e 1 6
e 1 12
e 1 15
e 1 20
e 1 28
e 1 31
e 1 38
e 1 42
e 2 11
e 2 15
e 2 19
e 2 40
e 2 46
e 2 47
e 3 8
e 3 38
e 3 41
e 3 42
e 4 6
e 4 10
e 4 12
e 4 15
e 4 20
e 4 26
e 4 28
e 4 31
e 5 17
e 5 23
e 5 24
e 5 30
e 5 32
e 5 37
e 5 43
e 5 44
e 6 8
e 6 12
e 6 13
e 6 15
e 6 20
e 6 21
e 6 22
e 6 28
e 6 31
e 6 32
e 6 45
e 7 10
e 7 18
e 7 23
e 7 27
e 7 28
e 7 33
e 7 39
e 7 45
e 7 46
e 8 13
e 8 21
e 8 22
e 8 32
e 8 41
e 8 45
e 9 19
e 9 20
e 9 27
e 9 29
e 9 34
e 9 36
e 9 40
e 10 18
e 10 26
e 10 27
e 10 45
e 10 46
e 11 15
e 11 37
e 11 40
e 11 46
e 12 14
e 12 15
e 12 20
e 12 28
e 12 31
e 12 43
e 12 47
e 13 16
e 13 17
e 13 21
e 13 22
e 13 32
e 13 39
e 13 42
e 13 45
e 14 21
e 14 33
e 14 35
e 14 43
e 14 44
e 14 47
e 15 20
e 15 28
e 15 31
e 15 40
e 15 46
e 16 17
e 16 35
e 16 36
e 16 39
e 16 42
e 17 30
e 17 37
e 17 39
e 17 42
e 17 44
e 18 25
e 18 27
e 18 45
e 18 46
e 19 20
e 19 27
e 19 29
e 19 47
e 20 27
e 20 28
e 20 29
e 20 31
e 21 22
e 21 32
e 21 33
e 21 35
e 21 44
e 21 45
e 22 25
e 22 29
e 22 30
e 22 32
e 22 45
e 23 24
e 23 28
e 23 32
e 23 33
e 23 39
e 23 43
e 24 31
e 24 32
e 24 34
e 24 41
e 24 43
e 25 29
e 25 30
e 26 38
e 27 29
e 27 45
e 27 46
e 28 31
e 28 33
e 28 39
e 29 30
e 30 37
e 30 44
e 31 34
e 31 41
e 32 43
e 32 45
e 33 35
e 33 39
e 33 44
e 34 36
e 34 40
e 34 41
e 35 36
e 35 44
e 36 40
e 37 44
e 38 42
e 39 42
e 40 46
e 43 47
e 45 46
